Maximize
  9 x0_0_ + 9 x0_1_ + 9 x0_2_ + 9 x0_3_ + 9 x0_4_ + 9 x0_5_ + 7 x0_6_
   + 2 x0_7_ + 2 x0_8_ + 2 x0_9_ + 72 x1_7_ + 72 x1_8_ + 72 x1_9_
   + 68 x2_7_ + 68 x2_8_ + 68 x2_9_ + 9 x3_0_ + 9 x3_1_ + 9 x3_2_ + 9 x3_3_
   + 9 x3_4_ + 9 x3_5_ + 7 x3_6_ + 2 x3_7_ + 2 x3_8_ + 2 x3_9_ + 72 x4_0_
   + 72 x4_1_ + 72 x4_2_ + 72 x4_3_ + 72 x4_4_ + 72 x4_5_ + 56 x4_6_
   + 16 x4_7_ + 16 x4_8_ + 16 x4_9_ + 18 x5_0_ + 18 x5_1_ + 18 x5_2_
   + 18 x5_3_ + 18 x5_4_ + 18 x5_5_ + 14 x5_6_ + 4 x5_7_ + 4 x5_8_
   + 4 x5_9_ + 36 x6_0_ + 36 x6_1_ + 36 x6_2_ + 36 x6_3_ + 36 x6_4_
   + 36 x6_5_ + 28 x6_6_ + 8 x6_7_ + 8 x6_8_ + 8 x6_9_ + 45 x7_0_
   + 45 x7_1_ + 45 x7_2_ + 45 x7_3_ + 45 x7_4_ + 45 x7_5_ + 35 x7_6_
   + 10 x7_7_ + 10 x7_8_ + 10 x7_9_ + 54 x8_0_ + 54 x8_1_ + 54 x8_2_
   + 54 x8_3_ + 54 x8_4_ + 54 x8_5_ + 42 x8_6_ + 12 x8_7_ + 12 x8_8_
   + 12 x8_9_ + 36 x9_0_ + 36 x9_1_ + 36 x9_2_ + 36 x9_3_ + 36 x9_4_
   + 36 x9_5_ + 28 x9_6_ + 8 x9_7_ + 8 x9_8_ + 8 x9_9_ + 9 x10_0_
   + 9 x10_1_ + 9 x10_2_ + 9 x10_3_ + 9 x10_4_ + 9 x10_5_ + 7 x10_6_
   + 2 x10_7_ + 2 x10_8_ + 2 x10_9_ + 36 x11_0_ + 36 x11_1_ + 36 x11_2_
   + 36 x11_3_ + 36 x11_4_ + 36 x11_5_ + 28 x11_6_ + 8 x11_7_ + 8 x11_8_
   + 8 x11_9_ + 27 x12_0_ + 27 x12_1_ + 27 x12_2_ + 27 x12_3_ + 27 x12_4_
   + 27 x12_5_ + 21 x12_6_ + 6 x12_7_ + 6 x12_8_ + 6 x12_9_ + 17 x13_7_
   + 17 x13_8_ + 17 x13_9_ + 36 x14_0_ + 36 x14_1_ + 36 x14_2_ + 36 x14_3_
   + 36 x14_4_ + 36 x14_5_ + 28 x14_6_ + 8 x14_7_ + 8 x14_8_ + 8 x14_9_
   + 27 x15_0_ + 27 x15_1_ + 27 x15_2_ + 27 x15_3_ + 27 x15_4_ + 27 x15_5_
   + 21 x15_6_ + 6 x15_7_ + 6 x15_8_ + 6 x15_9_ + 9 x16_0_ + 9 x16_1_
   + 9 x16_2_ + 9 x16_3_ + 9 x16_4_ + 9 x16_5_ + 7 x16_6_ + 2 x16_7_
   + 2 x16_8_ + 2 x16_9_ + 144 x17_7_ + 144 x17_8_ + 144 x17_9_ + 9 x18_0_
   + 9 x18_1_ + 9 x18_2_ + 9 x18_3_ + 9 x18_4_ + 9 x18_5_ + 7 x18_6_
   + 2 x18_7_ + 2 x18_8_ + 2 x18_9_ + 27 x19_0_ + 27 x19_1_ + 27 x19_2_
   + 27 x19_3_ + 27 x19_4_ + 27 x19_5_ + 21 x19_6_ + 6 x19_7_ + 6 x19_8_
   + 6 x19_9_
Subject To
 R0: x0_0_ + x0_1_ + x0_2_ + x0_3_ + x0_4_ + x0_5_ + x0_6_ + x0_7_ + x0_8_
   + x0_9_ + x0_n_ = 1
 R1: x1_6_ + x1_7_ + x1_8_ + x1_9_ + x1_n_ = 1
 R2: x2_7_ + x2_8_ + x2_9_ + x2_n_ = 1
 R3: x3_0_ + x3_1_ + x3_2_ + x3_3_ + x3_4_ + x3_5_ + x3_6_ + x3_7_ + x3_8_
   + x3_9_ + x3_n_ = 1
 R4: x4_0_ + x4_1_ + x4_2_ + x4_3_ + x4_4_ + x4_5_ + x4_6_ + x4_7_ + x4_8_
   + x4_9_ + x4_n_ = 1
 R5: x5_0_ + x5_1_ + x5_2_ + x5_3_ + x5_4_ + x5_5_ + x5_6_ + x5_7_ + x5_8_
   + x5_9_ + x5_n_ = 1
 R6: x6_0_ + x6_1_ + x6_2_ + x6_3_ + x6_4_ + x6_5_ + x6_6_ + x6_7_ + x6_8_
   + x6_9_ + x6_n_ = 1
 R7: x7_0_ + x7_1_ + x7_2_ + x7_3_ + x7_4_ + x7_5_ + x7_6_ + x7_7_ + x7_8_
   + x7_9_ + x7_n_ = 1
 R8: x8_0_ + x8_1_ + x8_2_ + x8_3_ + x8_4_ + x8_5_ + x8_6_ + x8_7_ + x8_8_
   + x8_9_ + x8_n_ = 1
 R9: x9_0_ + x9_1_ + x9_2_ + x9_3_ + x9_4_ + x9_5_ + x9_6_ + x9_7_ + x9_8_
   + x9_9_ + x9_n_ = 1
 R10: x10_0_ + x10_1_ + x10_2_ + x10_3_ + x10_4_ + x10_5_ + x10_6_ + x10_7_
   + x10_8_ + x10_9_ + x10_n_ = 1
 R11: x11_0_ + x11_1_ + x11_2_ + x11_3_ + x11_4_ + x11_5_ + x11_6_ + x11_7_
   + x11_8_ + x11_9_ + x11_n_ = 1
 R12: x12_0_ + x12_1_ + x12_2_ + x12_3_ + x12_4_ + x12_5_ + x12_6_ + x12_7_
   + x12_8_ + x12_9_ + x12_n_ = 1
 R13: x13_7_ + x13_8_ + x13_9_ + x13_n_ = 1
 R14: x14_0_ + x14_1_ + x14_2_ + x14_3_ + x14_4_ + x14_5_ + x14_6_ + x14_7_
   + x14_8_ + x14_9_ + x14_n_ = 1
 R15: x15_0_ + x15_1_ + x15_2_ + x15_3_ + x15_4_ + x15_5_ + x15_6_ + x15_7_
   + x15_8_ + x15_9_ + x15_n_ = 1
 R16: x16_0_ + x16_1_ + x16_2_ + x16_3_ + x16_4_ + x16_5_ + x16_6_ + x16_7_
   + x16_8_ + x16_9_ + x16_n_ = 1
 R17: x17_6_ + x17_7_ + x17_8_ + x17_9_ + x17_n_ = 1
 R18: x18_0_ + x18_1_ + x18_2_ + x18_3_ + x18_4_ + x18_5_ + x18_6_ + x18_7_
   + x18_8_ + x18_9_ + x18_n_ = 1
 R19: x19_0_ + x19_1_ + x19_2_ + x19_3_ + x19_4_ + x19_5_ + x19_6_ + x19_7_
   + x19_8_ + x19_9_ + x19_n_ = 1
 R20: x0_0_ + x14_0_ <= 1
 R21: x0_1_ + x14_1_ <= 1
 R22: x0_2_ + x14_2_ <= 1
 R23: x0_3_ + x14_3_ <= 1
 R24: x0_4_ + x14_4_ <= 1
 R25: x0_5_ + x14_5_ <= 1
 R26: x0_6_ + x14_6_ <= 1
 R27: x0_7_ + x14_7_ <= 1
 R28: x0_8_ + x14_8_ <= 1
 R29: x0_9_ + x14_9_ <= 1
 R30: x0_0_ + x19_0_ <= 1
 R31: x0_1_ + x19_1_ <= 1
 R32: x0_2_ + x19_2_ <= 1
 R33: x0_3_ + x19_3_ <= 1
 R34: x0_4_ + x19_4_ <= 1
 R35: x0_5_ + x19_5_ <= 1
 R36: x0_6_ + x19_6_ <= 1
 R37: x0_7_ + x19_7_ <= 1
 R38: x0_8_ + x19_8_ <= 1
 R39: x0_9_ + x19_9_ <= 1
 R40: x1_6_ + x4_6_ <= 1
 R41: x1_7_ + x4_7_ <= 1
 R42: x1_8_ + x4_8_ <= 1
 R43: x1_9_ + x4_9_ <= 1
 R44: x1_6_ + x6_6_ <= 1
 R45: x1_7_ + x6_7_ <= 1
 R46: x1_8_ + x6_8_ <= 1
 R47: x1_9_ + x6_9_ <= 1
 R48: x1_6_ + x7_6_ <= 1
 R49: x1_7_ + x7_7_ <= 1
 R50: x1_8_ + x7_8_ <= 1
 R51: x1_9_ + x7_9_ <= 1
 R52: x1_6_ + x8_6_ <= 1
 R53: x1_7_ + x8_7_ <= 1
 R54: x1_8_ + x8_8_ <= 1
 R55: x1_9_ + x8_9_ <= 1
 R56: x1_6_ + x9_6_ <= 1
 R57: x1_7_ + x9_7_ <= 1
 R58: x1_8_ + x9_8_ <= 1
 R59: x1_9_ + x9_9_ <= 1
 R60: x1_6_ + x11_6_ <= 1
 R61: x1_7_ + x11_7_ <= 1
 R62: x1_8_ + x11_8_ <= 1
 R63: x1_9_ + x11_9_ <= 1
 R64: x1_6_ + x12_6_ <= 1
 R65: x1_7_ + x12_7_ <= 1
 R66: x1_8_ + x12_8_ <= 1
 R67: x1_9_ + x12_9_ <= 1
 R68: x1_6_ + x18_6_ <= 1
 R69: x1_7_ + x18_7_ <= 1
 R70: x1_8_ + x18_8_ <= 1
 R71: x1_9_ + x18_9_ <= 1
 R72: x2_7_ + x3_7_ <= 1
 R73: x2_8_ + x3_8_ <= 1
 R74: x2_9_ + x3_9_ <= 1
 R75: x2_7_ + x4_7_ <= 1
 R76: x2_8_ + x4_8_ <= 1
 R77: x2_9_ + x4_9_ <= 1
 R78: x2_7_ + x5_7_ <= 1
 R79: x2_8_ + x5_8_ <= 1
 R80: x2_9_ + x5_9_ <= 1
 R81: x2_7_ + x7_7_ <= 1
 R82: x2_8_ + x7_8_ <= 1
 R83: x2_9_ + x7_9_ <= 1
 R84: x2_7_ + x8_7_ <= 1
 R85: x2_8_ + x8_8_ <= 1
 R86: x2_9_ + x8_9_ <= 1
 R87: x2_7_ + x9_7_ <= 1
 R88: x2_8_ + x9_8_ <= 1
 R89: x2_9_ + x9_9_ <= 1
 R90: x2_7_ + x11_7_ <= 1
 R91: x2_8_ + x11_8_ <= 1
 R92: x2_9_ + x11_9_ <= 1
 R93: x2_7_ + x12_7_ <= 1
 R94: x2_8_ + x12_8_ <= 1
 R95: x2_9_ + x12_9_ <= 1
 R96: x2_7_ + x13_7_ <= 1
 R97: x2_8_ + x13_8_ <= 1
 R98: x2_9_ + x13_9_ <= 1
 R99: x2_7_ + x15_7_ <= 1
 R100: x2_8_ + x15_8_ <= 1
 R101: x2_9_ + x15_9_ <= 1
 R102: x2_7_ + x17_7_ <= 1
 R103: x2_8_ + x17_8_ <= 1
 R104: x2_9_ + x17_9_ <= 1
 R105: x3_0_ + x4_0_ <= 1
 R106: x3_1_ + x4_1_ <= 1
 R107: x3_2_ + x4_2_ <= 1
 R108: x3_3_ + x4_3_ <= 1
 R109: x3_4_ + x4_4_ <= 1
 R110: x3_5_ + x4_5_ <= 1
 R111: x3_6_ + x4_6_ <= 1
 R112: x3_7_ + x4_7_ <= 1
 R113: x3_8_ + x4_8_ <= 1
 R114: x3_9_ + x4_9_ <= 1
 R115: x3_0_ + x5_0_ <= 1
 R116: x3_1_ + x5_1_ <= 1
 R117: x3_2_ + x5_2_ <= 1
 R118: x3_3_ + x5_3_ <= 1
 R119: x3_4_ + x5_4_ <= 1
 R120: x3_5_ + x5_5_ <= 1
 R121: x3_6_ + x5_6_ <= 1
 R122: x3_7_ + x5_7_ <= 1
 R123: x3_8_ + x5_8_ <= 1
 R124: x3_9_ + x5_9_ <= 1
 R125: x3_0_ + x4_0_ <= 1
 R126: x3_1_ + x4_1_ <= 1
 R127: x3_2_ + x4_2_ <= 1
 R128: x3_3_ + x4_3_ <= 1
 R129: x3_4_ + x4_4_ <= 1
 R130: x3_5_ + x4_5_ <= 1
 R131: x3_6_ + x4_6_ <= 1
 R132: x3_7_ + x4_7_ <= 1
 R133: x3_8_ + x4_8_ <= 1
 R134: x3_9_ + x4_9_ <= 1
 R135: x4_0_ + x5_0_ <= 1
 R136: x4_1_ + x5_1_ <= 1
 R137: x4_2_ + x5_2_ <= 1
 R138: x4_3_ + x5_3_ <= 1
 R139: x4_4_ + x5_4_ <= 1
 R140: x4_5_ + x5_5_ <= 1
 R141: x4_6_ + x5_6_ <= 1
 R142: x4_7_ + x5_7_ <= 1
 R143: x4_8_ + x5_8_ <= 1
 R144: x4_9_ + x5_9_ <= 1
 R145: x4_0_ + x6_0_ <= 1
 R146: x4_1_ + x6_1_ <= 1
 R147: x4_2_ + x6_2_ <= 1
 R148: x4_3_ + x6_3_ <= 1
 R149: x4_4_ + x6_4_ <= 1
 R150: x4_5_ + x6_5_ <= 1
 R151: x4_6_ + x6_6_ <= 1
 R152: x4_7_ + x6_7_ <= 1
 R153: x4_8_ + x6_8_ <= 1
 R154: x4_9_ + x6_9_ <= 1
 R155: x4_0_ + x7_0_ <= 1
 R156: x4_1_ + x7_1_ <= 1
 R157: x4_2_ + x7_2_ <= 1
 R158: x4_3_ + x7_3_ <= 1
 R159: x4_4_ + x7_4_ <= 1
 R160: x4_5_ + x7_5_ <= 1
 R161: x4_6_ + x7_6_ <= 1
 R162: x4_7_ + x7_7_ <= 1
 R163: x4_8_ + x7_8_ <= 1
 R164: x4_9_ + x7_9_ <= 1
 R165: x4_0_ + x8_0_ <= 1
 R166: x4_1_ + x8_1_ <= 1
 R167: x4_2_ + x8_2_ <= 1
 R168: x4_3_ + x8_3_ <= 1
 R169: x4_4_ + x8_4_ <= 1
 R170: x4_5_ + x8_5_ <= 1
 R171: x4_6_ + x8_6_ <= 1
 R172: x4_7_ + x8_7_ <= 1
 R173: x4_8_ + x8_8_ <= 1
 R174: x4_9_ + x8_9_ <= 1
 R175: x4_0_ + x9_0_ <= 1
 R176: x4_1_ + x9_1_ <= 1
 R177: x4_2_ + x9_2_ <= 1
 R178: x4_3_ + x9_3_ <= 1
 R179: x4_4_ + x9_4_ <= 1
 R180: x4_5_ + x9_5_ <= 1
 R181: x4_6_ + x9_6_ <= 1
 R182: x4_7_ + x9_7_ <= 1
 R183: x4_8_ + x9_8_ <= 1
 R184: x4_9_ + x9_9_ <= 1
 R185: x4_0_ + x11_0_ <= 1
 R186: x4_1_ + x11_1_ <= 1
 R187: x4_2_ + x11_2_ <= 1
 R188: x4_3_ + x11_3_ <= 1
 R189: x4_4_ + x11_4_ <= 1
 R190: x4_5_ + x11_5_ <= 1
 R191: x4_6_ + x11_6_ <= 1
 R192: x4_7_ + x11_7_ <= 1
 R193: x4_8_ + x11_8_ <= 1
 R194: x4_9_ + x11_9_ <= 1
 R195: x4_0_ + x12_0_ <= 1
 R196: x4_1_ + x12_1_ <= 1
 R197: x4_2_ + x12_2_ <= 1
 R198: x4_3_ + x12_3_ <= 1
 R199: x4_4_ + x12_4_ <= 1
 R200: x4_5_ + x12_5_ <= 1
 R201: x4_6_ + x12_6_ <= 1
 R202: x4_7_ + x12_7_ <= 1
 R203: x4_8_ + x12_8_ <= 1
 R204: x4_9_ + x12_9_ <= 1
 R205: x4_0_ + x14_0_ <= 1
 R206: x4_1_ + x14_1_ <= 1
 R207: x4_2_ + x14_2_ <= 1
 R208: x4_3_ + x14_3_ <= 1
 R209: x4_4_ + x14_4_ <= 1
 R210: x4_5_ + x14_5_ <= 1
 R211: x4_6_ + x14_6_ <= 1
 R212: x4_7_ + x14_7_ <= 1
 R213: x4_8_ + x14_8_ <= 1
 R214: x4_9_ + x14_9_ <= 1
 R215: x4_0_ + x15_0_ <= 1
 R216: x4_1_ + x15_1_ <= 1
 R217: x4_2_ + x15_2_ <= 1
 R218: x4_3_ + x15_3_ <= 1
 R219: x4_4_ + x15_4_ <= 1
 R220: x4_5_ + x15_5_ <= 1
 R221: x4_6_ + x15_6_ <= 1
 R222: x4_7_ + x15_7_ <= 1
 R223: x4_8_ + x15_8_ <= 1
 R224: x4_9_ + x15_9_ <= 1
 R225: x4_0_ + x18_0_ <= 1
 R226: x4_1_ + x18_1_ <= 1
 R227: x4_2_ + x18_2_ <= 1
 R228: x4_3_ + x18_3_ <= 1
 R229: x4_4_ + x18_4_ <= 1
 R230: x4_5_ + x18_5_ <= 1
 R231: x4_6_ + x18_6_ <= 1
 R232: x4_7_ + x18_7_ <= 1
 R233: x4_8_ + x18_8_ <= 1
 R234: x4_9_ + x18_9_ <= 1
 R235: x3_0_ + x5_0_ <= 1
 R236: x3_1_ + x5_1_ <= 1
 R237: x3_2_ + x5_2_ <= 1
 R238: x3_3_ + x5_3_ <= 1
 R239: x3_4_ + x5_4_ <= 1
 R240: x3_5_ + x5_5_ <= 1
 R241: x3_6_ + x5_6_ <= 1
 R242: x3_7_ + x5_7_ <= 1
 R243: x3_8_ + x5_8_ <= 1
 R244: x3_9_ + x5_9_ <= 1
 R245: x4_0_ + x5_0_ <= 1
 R246: x4_1_ + x5_1_ <= 1
 R247: x4_2_ + x5_2_ <= 1
 R248: x4_3_ + x5_3_ <= 1
 R249: x4_4_ + x5_4_ <= 1
 R250: x4_5_ + x5_5_ <= 1
 R251: x4_6_ + x5_6_ <= 1
 R252: x4_7_ + x5_7_ <= 1
 R253: x4_8_ + x5_8_ <= 1
 R254: x4_9_ + x5_9_ <= 1
 R255: x5_0_ + x7_0_ <= 1
 R256: x5_1_ + x7_1_ <= 1
 R257: x5_2_ + x7_2_ <= 1
 R258: x5_3_ + x7_3_ <= 1
 R259: x5_4_ + x7_4_ <= 1
 R260: x5_5_ + x7_5_ <= 1
 R261: x5_6_ + x7_6_ <= 1
 R262: x5_7_ + x7_7_ <= 1
 R263: x5_8_ + x7_8_ <= 1
 R264: x5_9_ + x7_9_ <= 1
 R265: x5_0_ + x8_0_ <= 1
 R266: x5_1_ + x8_1_ <= 1
 R267: x5_2_ + x8_2_ <= 1
 R268: x5_3_ + x8_3_ <= 1
 R269: x5_4_ + x8_4_ <= 1
 R270: x5_5_ + x8_5_ <= 1
 R271: x5_6_ + x8_6_ <= 1
 R272: x5_7_ + x8_7_ <= 1
 R273: x5_8_ + x8_8_ <= 1
 R274: x5_9_ + x8_9_ <= 1
 R275: x5_0_ + x9_0_ <= 1
 R276: x5_1_ + x9_1_ <= 1
 R277: x5_2_ + x9_2_ <= 1
 R278: x5_3_ + x9_3_ <= 1
 R279: x5_4_ + x9_4_ <= 1
 R280: x5_5_ + x9_5_ <= 1
 R281: x5_6_ + x9_6_ <= 1
 R282: x5_7_ + x9_7_ <= 1
 R283: x5_8_ + x9_8_ <= 1
 R284: x5_9_ + x9_9_ <= 1
 R285: x5_0_ + x15_0_ <= 1
 R286: x5_1_ + x15_1_ <= 1
 R287: x5_2_ + x15_2_ <= 1
 R288: x5_3_ + x15_3_ <= 1
 R289: x5_4_ + x15_4_ <= 1
 R290: x5_5_ + x15_5_ <= 1
 R291: x5_6_ + x15_6_ <= 1
 R292: x5_7_ + x15_7_ <= 1
 R293: x5_8_ + x15_8_ <= 1
 R294: x5_9_ + x15_9_ <= 1
 R295: x4_0_ + x6_0_ <= 1
 R296: x4_1_ + x6_1_ <= 1
 R297: x4_2_ + x6_2_ <= 1
 R298: x4_3_ + x6_3_ <= 1
 R299: x4_4_ + x6_4_ <= 1
 R300: x4_5_ + x6_5_ <= 1
 R301: x4_6_ + x6_6_ <= 1
 R302: x4_7_ + x6_7_ <= 1
 R303: x4_8_ + x6_8_ <= 1
 R304: x4_9_ + x6_9_ <= 1
 R305: x6_0_ + x7_0_ <= 1
 R306: x6_1_ + x7_1_ <= 1
 R307: x6_2_ + x7_2_ <= 1
 R308: x6_3_ + x7_3_ <= 1
 R309: x6_4_ + x7_4_ <= 1
 R310: x6_5_ + x7_5_ <= 1
 R311: x6_6_ + x7_6_ <= 1
 R312: x6_7_ + x7_7_ <= 1
 R313: x6_8_ + x7_8_ <= 1
 R314: x6_9_ + x7_9_ <= 1
 R315: x6_0_ + x8_0_ <= 1
 R316: x6_1_ + x8_1_ <= 1
 R317: x6_2_ + x8_2_ <= 1
 R318: x6_3_ + x8_3_ <= 1
 R319: x6_4_ + x8_4_ <= 1
 R320: x6_5_ + x8_5_ <= 1
 R321: x6_6_ + x8_6_ <= 1
 R322: x6_7_ + x8_7_ <= 1
 R323: x6_8_ + x8_8_ <= 1
 R324: x6_9_ + x8_9_ <= 1
 R325: x6_0_ + x9_0_ <= 1
 R326: x6_1_ + x9_1_ <= 1
 R327: x6_2_ + x9_2_ <= 1
 R328: x6_3_ + x9_3_ <= 1
 R329: x6_4_ + x9_4_ <= 1
 R330: x6_5_ + x9_5_ <= 1
 R331: x6_6_ + x9_6_ <= 1
 R332: x6_7_ + x9_7_ <= 1
 R333: x6_8_ + x9_8_ <= 1
 R334: x6_9_ + x9_9_ <= 1
 R335: x6_0_ + x10_0_ <= 1
 R336: x6_1_ + x10_1_ <= 1
 R337: x6_2_ + x10_2_ <= 1
 R338: x6_3_ + x10_3_ <= 1
 R339: x6_4_ + x10_4_ <= 1
 R340: x6_5_ + x10_5_ <= 1
 R341: x6_6_ + x10_6_ <= 1
 R342: x6_7_ + x10_7_ <= 1
 R343: x6_8_ + x10_8_ <= 1
 R344: x6_9_ + x10_9_ <= 1
 R345: x6_0_ + x11_0_ <= 1
 R346: x6_1_ + x11_1_ <= 1
 R347: x6_2_ + x11_2_ <= 1
 R348: x6_3_ + x11_3_ <= 1
 R349: x6_4_ + x11_4_ <= 1
 R350: x6_5_ + x11_5_ <= 1
 R351: x6_6_ + x11_6_ <= 1
 R352: x6_7_ + x11_7_ <= 1
 R353: x6_8_ + x11_8_ <= 1
 R354: x6_9_ + x11_9_ <= 1
 R355: x6_0_ + x12_0_ <= 1
 R356: x6_1_ + x12_1_ <= 1
 R357: x6_2_ + x12_2_ <= 1
 R358: x6_3_ + x12_3_ <= 1
 R359: x6_4_ + x12_4_ <= 1
 R360: x6_5_ + x12_5_ <= 1
 R361: x6_6_ + x12_6_ <= 1
 R362: x6_7_ + x12_7_ <= 1
 R363: x6_8_ + x12_8_ <= 1
 R364: x6_9_ + x12_9_ <= 1
 R365: x6_0_ + x18_0_ <= 1
 R366: x6_1_ + x18_1_ <= 1
 R367: x6_2_ + x18_2_ <= 1
 R368: x6_3_ + x18_3_ <= 1
 R369: x6_4_ + x18_4_ <= 1
 R370: x6_5_ + x18_5_ <= 1
 R371: x6_6_ + x18_6_ <= 1
 R372: x6_7_ + x18_7_ <= 1
 R373: x6_8_ + x18_8_ <= 1
 R374: x6_9_ + x18_9_ <= 1
 R375: x4_0_ + x7_0_ <= 1
 R376: x4_1_ + x7_1_ <= 1
 R377: x4_2_ + x7_2_ <= 1
 R378: x4_3_ + x7_3_ <= 1
 R379: x4_4_ + x7_4_ <= 1
 R380: x4_5_ + x7_5_ <= 1
 R381: x4_6_ + x7_6_ <= 1
 R382: x4_7_ + x7_7_ <= 1
 R383: x4_8_ + x7_8_ <= 1
 R384: x4_9_ + x7_9_ <= 1
 R385: x5_0_ + x7_0_ <= 1
 R386: x5_1_ + x7_1_ <= 1
 R387: x5_2_ + x7_2_ <= 1
 R388: x5_3_ + x7_3_ <= 1
 R389: x5_4_ + x7_4_ <= 1
 R390: x5_5_ + x7_5_ <= 1
 R391: x5_6_ + x7_6_ <= 1
 R392: x5_7_ + x7_7_ <= 1
 R393: x5_8_ + x7_8_ <= 1
 R394: x5_9_ + x7_9_ <= 1
 R395: x6_0_ + x7_0_ <= 1
 R396: x6_1_ + x7_1_ <= 1
 R397: x6_2_ + x7_2_ <= 1
 R398: x6_3_ + x7_3_ <= 1
 R399: x6_4_ + x7_4_ <= 1
 R400: x6_5_ + x7_5_ <= 1
 R401: x6_6_ + x7_6_ <= 1
 R402: x6_7_ + x7_7_ <= 1
 R403: x6_8_ + x7_8_ <= 1
 R404: x6_9_ + x7_9_ <= 1
 R405: x7_0_ + x8_0_ <= 1
 R406: x7_1_ + x8_1_ <= 1
 R407: x7_2_ + x8_2_ <= 1
 R408: x7_3_ + x8_3_ <= 1
 R409: x7_4_ + x8_4_ <= 1
 R410: x7_5_ + x8_5_ <= 1
 R411: x7_6_ + x8_6_ <= 1
 R412: x7_7_ + x8_7_ <= 1
 R413: x7_8_ + x8_8_ <= 1
 R414: x7_9_ + x8_9_ <= 1
 R415: x7_0_ + x9_0_ <= 1
 R416: x7_1_ + x9_1_ <= 1
 R417: x7_2_ + x9_2_ <= 1
 R418: x7_3_ + x9_3_ <= 1
 R419: x7_4_ + x9_4_ <= 1
 R420: x7_5_ + x9_5_ <= 1
 R421: x7_6_ + x9_6_ <= 1
 R422: x7_7_ + x9_7_ <= 1
 R423: x7_8_ + x9_8_ <= 1
 R424: x7_9_ + x9_9_ <= 1
 R425: x7_0_ + x11_0_ <= 1
 R426: x7_1_ + x11_1_ <= 1
 R427: x7_2_ + x11_2_ <= 1
 R428: x7_3_ + x11_3_ <= 1
 R429: x7_4_ + x11_4_ <= 1
 R430: x7_5_ + x11_5_ <= 1
 R431: x7_6_ + x11_6_ <= 1
 R432: x7_7_ + x11_7_ <= 1
 R433: x7_8_ + x11_8_ <= 1
 R434: x7_9_ + x11_9_ <= 1
 R435: x7_0_ + x12_0_ <= 1
 R436: x7_1_ + x12_1_ <= 1
 R437: x7_2_ + x12_2_ <= 1
 R438: x7_3_ + x12_3_ <= 1
 R439: x7_4_ + x12_4_ <= 1
 R440: x7_5_ + x12_5_ <= 1
 R441: x7_6_ + x12_6_ <= 1
 R442: x7_7_ + x12_7_ <= 1
 R443: x7_8_ + x12_8_ <= 1
 R444: x7_9_ + x12_9_ <= 1
 R445: x7_0_ + x15_0_ <= 1
 R446: x7_1_ + x15_1_ <= 1
 R447: x7_2_ + x15_2_ <= 1
 R448: x7_3_ + x15_3_ <= 1
 R449: x7_4_ + x15_4_ <= 1
 R450: x7_5_ + x15_5_ <= 1
 R451: x7_6_ + x15_6_ <= 1
 R452: x7_7_ + x15_7_ <= 1
 R453: x7_8_ + x15_8_ <= 1
 R454: x7_9_ + x15_9_ <= 1
 R455: x7_0_ + x18_0_ <= 1
 R456: x7_1_ + x18_1_ <= 1
 R457: x7_2_ + x18_2_ <= 1
 R458: x7_3_ + x18_3_ <= 1
 R459: x7_4_ + x18_4_ <= 1
 R460: x7_5_ + x18_5_ <= 1
 R461: x7_6_ + x18_6_ <= 1
 R462: x7_7_ + x18_7_ <= 1
 R463: x7_8_ + x18_8_ <= 1
 R464: x7_9_ + x18_9_ <= 1
 R465: x4_0_ + x8_0_ <= 1
 R466: x4_1_ + x8_1_ <= 1
 R467: x4_2_ + x8_2_ <= 1
 R468: x4_3_ + x8_3_ <= 1
 R469: x4_4_ + x8_4_ <= 1
 R470: x4_5_ + x8_5_ <= 1
 R471: x4_6_ + x8_6_ <= 1
 R472: x4_7_ + x8_7_ <= 1
 R473: x4_8_ + x8_8_ <= 1
 R474: x4_9_ + x8_9_ <= 1
 R475: x5_0_ + x8_0_ <= 1
 R476: x5_1_ + x8_1_ <= 1
 R477: x5_2_ + x8_2_ <= 1
 R478: x5_3_ + x8_3_ <= 1
 R479: x5_4_ + x8_4_ <= 1
 R480: x5_5_ + x8_5_ <= 1
 R481: x5_6_ + x8_6_ <= 1
 R482: x5_7_ + x8_7_ <= 1
 R483: x5_8_ + x8_8_ <= 1
 R484: x5_9_ + x8_9_ <= 1
 R485: x6_0_ + x8_0_ <= 1
 R486: x6_1_ + x8_1_ <= 1
 R487: x6_2_ + x8_2_ <= 1
 R488: x6_3_ + x8_3_ <= 1
 R489: x6_4_ + x8_4_ <= 1
 R490: x6_5_ + x8_5_ <= 1
 R491: x6_6_ + x8_6_ <= 1
 R492: x6_7_ + x8_7_ <= 1
 R493: x6_8_ + x8_8_ <= 1
 R494: x6_9_ + x8_9_ <= 1
 R495: x7_0_ + x8_0_ <= 1
 R496: x7_1_ + x8_1_ <= 1
 R497: x7_2_ + x8_2_ <= 1
 R498: x7_3_ + x8_3_ <= 1
 R499: x7_4_ + x8_4_ <= 1
 R500: x7_5_ + x8_5_ <= 1
 R501: x7_6_ + x8_6_ <= 1
 R502: x7_7_ + x8_7_ <= 1
 R503: x7_8_ + x8_8_ <= 1
 R504: x7_9_ + x8_9_ <= 1
 R505: x8_0_ + x9_0_ <= 1
 R506: x8_1_ + x9_1_ <= 1
 R507: x8_2_ + x9_2_ <= 1
 R508: x8_3_ + x9_3_ <= 1
 R509: x8_4_ + x9_4_ <= 1
 R510: x8_5_ + x9_5_ <= 1
 R511: x8_6_ + x9_6_ <= 1
 R512: x8_7_ + x9_7_ <= 1
 R513: x8_8_ + x9_8_ <= 1
 R514: x8_9_ + x9_9_ <= 1
 R515: x8_0_ + x11_0_ <= 1
 R516: x8_1_ + x11_1_ <= 1
 R517: x8_2_ + x11_2_ <= 1
 R518: x8_3_ + x11_3_ <= 1
 R519: x8_4_ + x11_4_ <= 1
 R520: x8_5_ + x11_5_ <= 1
 R521: x8_6_ + x11_6_ <= 1
 R522: x8_7_ + x11_7_ <= 1
 R523: x8_8_ + x11_8_ <= 1
 R524: x8_9_ + x11_9_ <= 1
 R525: x8_0_ + x12_0_ <= 1
 R526: x8_1_ + x12_1_ <= 1
 R527: x8_2_ + x12_2_ <= 1
 R528: x8_3_ + x12_3_ <= 1
 R529: x8_4_ + x12_4_ <= 1
 R530: x8_5_ + x12_5_ <= 1
 R531: x8_6_ + x12_6_ <= 1
 R532: x8_7_ + x12_7_ <= 1
 R533: x8_8_ + x12_8_ <= 1
 R534: x8_9_ + x12_9_ <= 1
 R535: x8_0_ + x15_0_ <= 1
 R536: x8_1_ + x15_1_ <= 1
 R537: x8_2_ + x15_2_ <= 1
 R538: x8_3_ + x15_3_ <= 1
 R539: x8_4_ + x15_4_ <= 1
 R540: x8_5_ + x15_5_ <= 1
 R541: x8_6_ + x15_6_ <= 1
 R542: x8_7_ + x15_7_ <= 1
 R543: x8_8_ + x15_8_ <= 1
 R544: x8_9_ + x15_9_ <= 1
 R545: x8_0_ + x18_0_ <= 1
 R546: x8_1_ + x18_1_ <= 1
 R547: x8_2_ + x18_2_ <= 1
 R548: x8_3_ + x18_3_ <= 1
 R549: x8_4_ + x18_4_ <= 1
 R550: x8_5_ + x18_5_ <= 1
 R551: x8_6_ + x18_6_ <= 1
 R552: x8_7_ + x18_7_ <= 1
 R553: x8_8_ + x18_8_ <= 1
 R554: x8_9_ + x18_9_ <= 1
 R555: x4_0_ + x9_0_ <= 1
 R556: x4_1_ + x9_1_ <= 1
 R557: x4_2_ + x9_2_ <= 1
 R558: x4_3_ + x9_3_ <= 1
 R559: x4_4_ + x9_4_ <= 1
 R560: x4_5_ + x9_5_ <= 1
 R561: x4_6_ + x9_6_ <= 1
 R562: x4_7_ + x9_7_ <= 1
 R563: x4_8_ + x9_8_ <= 1
 R564: x4_9_ + x9_9_ <= 1
 R565: x5_0_ + x9_0_ <= 1
 R566: x5_1_ + x9_1_ <= 1
 R567: x5_2_ + x9_2_ <= 1
 R568: x5_3_ + x9_3_ <= 1
 R569: x5_4_ + x9_4_ <= 1
 R570: x5_5_ + x9_5_ <= 1
 R571: x5_6_ + x9_6_ <= 1
 R572: x5_7_ + x9_7_ <= 1
 R573: x5_8_ + x9_8_ <= 1
 R574: x5_9_ + x9_9_ <= 1
 R575: x6_0_ + x9_0_ <= 1
 R576: x6_1_ + x9_1_ <= 1
 R577: x6_2_ + x9_2_ <= 1
 R578: x6_3_ + x9_3_ <= 1
 R579: x6_4_ + x9_4_ <= 1
 R580: x6_5_ + x9_5_ <= 1
 R581: x6_6_ + x9_6_ <= 1
 R582: x6_7_ + x9_7_ <= 1
 R583: x6_8_ + x9_8_ <= 1
 R584: x6_9_ + x9_9_ <= 1
 R585: x7_0_ + x9_0_ <= 1
 R586: x7_1_ + x9_1_ <= 1
 R587: x7_2_ + x9_2_ <= 1
 R588: x7_3_ + x9_3_ <= 1
 R589: x7_4_ + x9_4_ <= 1
 R590: x7_5_ + x9_5_ <= 1
 R591: x7_6_ + x9_6_ <= 1
 R592: x7_7_ + x9_7_ <= 1
 R593: x7_8_ + x9_8_ <= 1
 R594: x7_9_ + x9_9_ <= 1
 R595: x8_0_ + x9_0_ <= 1
 R596: x8_1_ + x9_1_ <= 1
 R597: x8_2_ + x9_2_ <= 1
 R598: x8_3_ + x9_3_ <= 1
 R599: x8_4_ + x9_4_ <= 1
 R600: x8_5_ + x9_5_ <= 1
 R601: x8_6_ + x9_6_ <= 1
 R602: x8_7_ + x9_7_ <= 1
 R603: x8_8_ + x9_8_ <= 1
 R604: x8_9_ + x9_9_ <= 1
 R605: x9_0_ + x11_0_ <= 1
 R606: x9_1_ + x11_1_ <= 1
 R607: x9_2_ + x11_2_ <= 1
 R608: x9_3_ + x11_3_ <= 1
 R609: x9_4_ + x11_4_ <= 1
 R610: x9_5_ + x11_5_ <= 1
 R611: x9_6_ + x11_6_ <= 1
 R612: x9_7_ + x11_7_ <= 1
 R613: x9_8_ + x11_8_ <= 1
 R614: x9_9_ + x11_9_ <= 1
 R615: x9_0_ + x12_0_ <= 1
 R616: x9_1_ + x12_1_ <= 1
 R617: x9_2_ + x12_2_ <= 1
 R618: x9_3_ + x12_3_ <= 1
 R619: x9_4_ + x12_4_ <= 1
 R620: x9_5_ + x12_5_ <= 1
 R621: x9_6_ + x12_6_ <= 1
 R622: x9_7_ + x12_7_ <= 1
 R623: x9_8_ + x12_8_ <= 1
 R624: x9_9_ + x12_9_ <= 1
 R625: x9_0_ + x15_0_ <= 1
 R626: x9_1_ + x15_1_ <= 1
 R627: x9_2_ + x15_2_ <= 1
 R628: x9_3_ + x15_3_ <= 1
 R629: x9_4_ + x15_4_ <= 1
 R630: x9_5_ + x15_5_ <= 1
 R631: x9_6_ + x15_6_ <= 1
 R632: x9_7_ + x15_7_ <= 1
 R633: x9_8_ + x15_8_ <= 1
 R634: x9_9_ + x15_9_ <= 1
 R635: x9_0_ + x18_0_ <= 1
 R636: x9_1_ + x18_1_ <= 1
 R637: x9_2_ + x18_2_ <= 1
 R638: x9_3_ + x18_3_ <= 1
 R639: x9_4_ + x18_4_ <= 1
 R640: x9_5_ + x18_5_ <= 1
 R641: x9_6_ + x18_6_ <= 1
 R642: x9_7_ + x18_7_ <= 1
 R643: x9_8_ + x18_8_ <= 1
 R644: x9_9_ + x18_9_ <= 1
 R645: x6_0_ + x10_0_ <= 1
 R646: x6_1_ + x10_1_ <= 1
 R647: x6_2_ + x10_2_ <= 1
 R648: x6_3_ + x10_3_ <= 1
 R649: x6_4_ + x10_4_ <= 1
 R650: x6_5_ + x10_5_ <= 1
 R651: x6_6_ + x10_6_ <= 1
 R652: x6_7_ + x10_7_ <= 1
 R653: x6_8_ + x10_8_ <= 1
 R654: x6_9_ + x10_9_ <= 1
 R655: x4_0_ + x11_0_ <= 1
 R656: x4_1_ + x11_1_ <= 1
 R657: x4_2_ + x11_2_ <= 1
 R658: x4_3_ + x11_3_ <= 1
 R659: x4_4_ + x11_4_ <= 1
 R660: x4_5_ + x11_5_ <= 1
 R661: x4_6_ + x11_6_ <= 1
 R662: x4_7_ + x11_7_ <= 1
 R663: x4_8_ + x11_8_ <= 1
 R664: x4_9_ + x11_9_ <= 1
 R665: x6_0_ + x11_0_ <= 1
 R666: x6_1_ + x11_1_ <= 1
 R667: x6_2_ + x11_2_ <= 1
 R668: x6_3_ + x11_3_ <= 1
 R669: x6_4_ + x11_4_ <= 1
 R670: x6_5_ + x11_5_ <= 1
 R671: x6_6_ + x11_6_ <= 1
 R672: x6_7_ + x11_7_ <= 1
 R673: x6_8_ + x11_8_ <= 1
 R674: x6_9_ + x11_9_ <= 1
 R675: x7_0_ + x11_0_ <= 1
 R676: x7_1_ + x11_1_ <= 1
 R677: x7_2_ + x11_2_ <= 1
 R678: x7_3_ + x11_3_ <= 1
 R679: x7_4_ + x11_4_ <= 1
 R680: x7_5_ + x11_5_ <= 1
 R681: x7_6_ + x11_6_ <= 1
 R682: x7_7_ + x11_7_ <= 1
 R683: x7_8_ + x11_8_ <= 1
 R684: x7_9_ + x11_9_ <= 1
 R685: x8_0_ + x11_0_ <= 1
 R686: x8_1_ + x11_1_ <= 1
 R687: x8_2_ + x11_2_ <= 1
 R688: x8_3_ + x11_3_ <= 1
 R689: x8_4_ + x11_4_ <= 1
 R690: x8_5_ + x11_5_ <= 1
 R691: x8_6_ + x11_6_ <= 1
 R692: x8_7_ + x11_7_ <= 1
 R693: x8_8_ + x11_8_ <= 1
 R694: x8_9_ + x11_9_ <= 1
 R695: x9_0_ + x11_0_ <= 1
 R696: x9_1_ + x11_1_ <= 1
 R697: x9_2_ + x11_2_ <= 1
 R698: x9_3_ + x11_3_ <= 1
 R699: x9_4_ + x11_4_ <= 1
 R700: x9_5_ + x11_5_ <= 1
 R701: x9_6_ + x11_6_ <= 1
 R702: x9_7_ + x11_7_ <= 1
 R703: x9_8_ + x11_8_ <= 1
 R704: x9_9_ + x11_9_ <= 1
 R705: x11_0_ + x12_0_ <= 1
 R706: x11_1_ + x12_1_ <= 1
 R707: x11_2_ + x12_2_ <= 1
 R708: x11_3_ + x12_3_ <= 1
 R709: x11_4_ + x12_4_ <= 1
 R710: x11_5_ + x12_5_ <= 1
 R711: x11_6_ + x12_6_ <= 1
 R712: x11_7_ + x12_7_ <= 1
 R713: x11_8_ + x12_8_ <= 1
 R714: x11_9_ + x12_9_ <= 1
 R715: x11_0_ + x15_0_ <= 1
 R716: x11_1_ + x15_1_ <= 1
 R717: x11_2_ + x15_2_ <= 1
 R718: x11_3_ + x15_3_ <= 1
 R719: x11_4_ + x15_4_ <= 1
 R720: x11_5_ + x15_5_ <= 1
 R721: x11_6_ + x15_6_ <= 1
 R722: x11_7_ + x15_7_ <= 1
 R723: x11_8_ + x15_8_ <= 1
 R724: x11_9_ + x15_9_ <= 1
 R725: x11_0_ + x18_0_ <= 1
 R726: x11_1_ + x18_1_ <= 1
 R727: x11_2_ + x18_2_ <= 1
 R728: x11_3_ + x18_3_ <= 1
 R729: x11_4_ + x18_4_ <= 1
 R730: x11_5_ + x18_5_ <= 1
 R731: x11_6_ + x18_6_ <= 1
 R732: x11_7_ + x18_7_ <= 1
 R733: x11_8_ + x18_8_ <= 1
 R734: x11_9_ + x18_9_ <= 1
 R735: x4_0_ + x12_0_ <= 1
 R736: x4_1_ + x12_1_ <= 1
 R737: x4_2_ + x12_2_ <= 1
 R738: x4_3_ + x12_3_ <= 1
 R739: x4_4_ + x12_4_ <= 1
 R740: x4_5_ + x12_5_ <= 1
 R741: x4_6_ + x12_6_ <= 1
 R742: x4_7_ + x12_7_ <= 1
 R743: x4_8_ + x12_8_ <= 1
 R744: x4_9_ + x12_9_ <= 1
 R745: x6_0_ + x12_0_ <= 1
 R746: x6_1_ + x12_1_ <= 1
 R747: x6_2_ + x12_2_ <= 1
 R748: x6_3_ + x12_3_ <= 1
 R749: x6_4_ + x12_4_ <= 1
 R750: x6_5_ + x12_5_ <= 1
 R751: x6_6_ + x12_6_ <= 1
 R752: x6_7_ + x12_7_ <= 1
 R753: x6_8_ + x12_8_ <= 1
 R754: x6_9_ + x12_9_ <= 1
 R755: x7_0_ + x12_0_ <= 1
 R756: x7_1_ + x12_1_ <= 1
 R757: x7_2_ + x12_2_ <= 1
 R758: x7_3_ + x12_3_ <= 1
 R759: x7_4_ + x12_4_ <= 1
 R760: x7_5_ + x12_5_ <= 1
 R761: x7_6_ + x12_6_ <= 1
 R762: x7_7_ + x12_7_ <= 1
 R763: x7_8_ + x12_8_ <= 1
 R764: x7_9_ + x12_9_ <= 1
 R765: x8_0_ + x12_0_ <= 1
 R766: x8_1_ + x12_1_ <= 1
 R767: x8_2_ + x12_2_ <= 1
 R768: x8_3_ + x12_3_ <= 1
 R769: x8_4_ + x12_4_ <= 1
 R770: x8_5_ + x12_5_ <= 1
 R771: x8_6_ + x12_6_ <= 1
 R772: x8_7_ + x12_7_ <= 1
 R773: x8_8_ + x12_8_ <= 1
 R774: x8_9_ + x12_9_ <= 1
 R775: x9_0_ + x12_0_ <= 1
 R776: x9_1_ + x12_1_ <= 1
 R777: x9_2_ + x12_2_ <= 1
 R778: x9_3_ + x12_3_ <= 1
 R779: x9_4_ + x12_4_ <= 1
 R780: x9_5_ + x12_5_ <= 1
 R781: x9_6_ + x12_6_ <= 1
 R782: x9_7_ + x12_7_ <= 1
 R783: x9_8_ + x12_8_ <= 1
 R784: x9_9_ + x12_9_ <= 1
 R785: x11_0_ + x12_0_ <= 1
 R786: x11_1_ + x12_1_ <= 1
 R787: x11_2_ + x12_2_ <= 1
 R788: x11_3_ + x12_3_ <= 1
 R789: x11_4_ + x12_4_ <= 1
 R790: x11_5_ + x12_5_ <= 1
 R791: x11_6_ + x12_6_ <= 1
 R792: x11_7_ + x12_7_ <= 1
 R793: x11_8_ + x12_8_ <= 1
 R794: x11_9_ + x12_9_ <= 1
 R795: x12_0_ + x15_0_ <= 1
 R796: x12_1_ + x15_1_ <= 1
 R797: x12_2_ + x15_2_ <= 1
 R798: x12_3_ + x15_3_ <= 1
 R799: x12_4_ + x15_4_ <= 1
 R800: x12_5_ + x15_5_ <= 1
 R801: x12_6_ + x15_6_ <= 1
 R802: x12_7_ + x15_7_ <= 1
 R803: x12_8_ + x15_8_ <= 1
 R804: x12_9_ + x15_9_ <= 1
 R805: x12_0_ + x18_0_ <= 1
 R806: x12_1_ + x18_1_ <= 1
 R807: x12_2_ + x18_2_ <= 1
 R808: x12_3_ + x18_3_ <= 1
 R809: x12_4_ + x18_4_ <= 1
 R810: x12_5_ + x18_5_ <= 1
 R811: x12_6_ + x18_6_ <= 1
 R812: x12_7_ + x18_7_ <= 1
 R813: x12_8_ + x18_8_ <= 1
 R814: x12_9_ + x18_9_ <= 1
 R815: x2_7_ + x13_7_ <= 1
 R816: x2_8_ + x13_8_ <= 1
 R817: x2_9_ + x13_9_ <= 1
 R818: x4_7_ + x13_7_ <= 1
 R819: x4_8_ + x13_8_ <= 1
 R820: x4_9_ + x13_9_ <= 1
 R821: x7_7_ + x13_7_ <= 1
 R822: x7_8_ + x13_8_ <= 1
 R823: x7_9_ + x13_9_ <= 1
 R824: x8_7_ + x13_7_ <= 1
 R825: x8_8_ + x13_8_ <= 1
 R826: x8_9_ + x13_9_ <= 1
 R827: x9_7_ + x13_7_ <= 1
 R828: x9_8_ + x13_8_ <= 1
 R829: x9_9_ + x13_9_ <= 1
 R830: x11_7_ + x13_7_ <= 1
 R831: x11_8_ + x13_8_ <= 1
 R832: x11_9_ + x13_9_ <= 1
 R833: x12_7_ + x13_7_ <= 1
 R834: x12_8_ + x13_8_ <= 1
 R835: x12_9_ + x13_9_ <= 1
 R836: x13_7_ + x15_7_ <= 1
 R837: x13_8_ + x15_8_ <= 1
 R838: x13_9_ + x15_9_ <= 1
 R839: x0_0_ + x14_0_ <= 1
 R840: x0_1_ + x14_1_ <= 1
 R841: x0_2_ + x14_2_ <= 1
 R842: x0_3_ + x14_3_ <= 1
 R843: x0_4_ + x14_4_ <= 1
 R844: x0_5_ + x14_5_ <= 1
 R845: x0_6_ + x14_6_ <= 1
 R846: x0_7_ + x14_7_ <= 1
 R847: x0_8_ + x14_8_ <= 1
 R848: x0_9_ + x14_9_ <= 1
 R849: x4_0_ + x14_0_ <= 1
 R850: x4_1_ + x14_1_ <= 1
 R851: x4_2_ + x14_2_ <= 1
 R852: x4_3_ + x14_3_ <= 1
 R853: x4_4_ + x14_4_ <= 1
 R854: x4_5_ + x14_5_ <= 1
 R855: x4_6_ + x14_6_ <= 1
 R856: x4_7_ + x14_7_ <= 1
 R857: x4_8_ + x14_8_ <= 1
 R858: x4_9_ + x14_9_ <= 1
 R859: x14_0_ + x16_0_ <= 1
 R860: x14_1_ + x16_1_ <= 1
 R861: x14_2_ + x16_2_ <= 1
 R862: x14_3_ + x16_3_ <= 1
 R863: x14_4_ + x16_4_ <= 1
 R864: x14_5_ + x16_5_ <= 1
 R865: x14_6_ + x16_6_ <= 1
 R866: x14_7_ + x16_7_ <= 1
 R867: x14_8_ + x16_8_ <= 1
 R868: x14_9_ + x16_9_ <= 1
 R869: x14_0_ + x19_0_ <= 1
 R870: x14_1_ + x19_1_ <= 1
 R871: x14_2_ + x19_2_ <= 1
 R872: x14_3_ + x19_3_ <= 1
 R873: x14_4_ + x19_4_ <= 1
 R874: x14_5_ + x19_5_ <= 1
 R875: x14_6_ + x19_6_ <= 1
 R876: x14_7_ + x19_7_ <= 1
 R877: x14_8_ + x19_8_ <= 1
 R878: x14_9_ + x19_9_ <= 1
 R879: x4_0_ + x15_0_ <= 1
 R880: x4_1_ + x15_1_ <= 1
 R881: x4_2_ + x15_2_ <= 1
 R882: x4_3_ + x15_3_ <= 1
 R883: x4_4_ + x15_4_ <= 1
 R884: x4_5_ + x15_5_ <= 1
 R885: x4_6_ + x15_6_ <= 1
 R886: x4_7_ + x15_7_ <= 1
 R887: x4_8_ + x15_8_ <= 1
 R888: x4_9_ + x15_9_ <= 1
 R889: x5_0_ + x15_0_ <= 1
 R890: x5_1_ + x15_1_ <= 1
 R891: x5_2_ + x15_2_ <= 1
 R892: x5_3_ + x15_3_ <= 1
 R893: x5_4_ + x15_4_ <= 1
 R894: x5_5_ + x15_5_ <= 1
 R895: x5_6_ + x15_6_ <= 1
 R896: x5_7_ + x15_7_ <= 1
 R897: x5_8_ + x15_8_ <= 1
 R898: x5_9_ + x15_9_ <= 1
 R899: x7_0_ + x15_0_ <= 1
 R900: x7_1_ + x15_1_ <= 1
 R901: x7_2_ + x15_2_ <= 1
 R902: x7_3_ + x15_3_ <= 1
 R903: x7_4_ + x15_4_ <= 1
 R904: x7_5_ + x15_5_ <= 1
 R905: x7_6_ + x15_6_ <= 1
 R906: x7_7_ + x15_7_ <= 1
 R907: x7_8_ + x15_8_ <= 1
 R908: x7_9_ + x15_9_ <= 1
 R909: x8_0_ + x15_0_ <= 1
 R910: x8_1_ + x15_1_ <= 1
 R911: x8_2_ + x15_2_ <= 1
 R912: x8_3_ + x15_3_ <= 1
 R913: x8_4_ + x15_4_ <= 1
 R914: x8_5_ + x15_5_ <= 1
 R915: x8_6_ + x15_6_ <= 1
 R916: x8_7_ + x15_7_ <= 1
 R917: x8_8_ + x15_8_ <= 1
 R918: x8_9_ + x15_9_ <= 1
 R919: x9_0_ + x15_0_ <= 1
 R920: x9_1_ + x15_1_ <= 1
 R921: x9_2_ + x15_2_ <= 1
 R922: x9_3_ + x15_3_ <= 1
 R923: x9_4_ + x15_4_ <= 1
 R924: x9_5_ + x15_5_ <= 1
 R925: x9_6_ + x15_6_ <= 1
 R926: x9_7_ + x15_7_ <= 1
 R927: x9_8_ + x15_8_ <= 1
 R928: x9_9_ + x15_9_ <= 1
 R929: x11_0_ + x15_0_ <= 1
 R930: x11_1_ + x15_1_ <= 1
 R931: x11_2_ + x15_2_ <= 1
 R932: x11_3_ + x15_3_ <= 1
 R933: x11_4_ + x15_4_ <= 1
 R934: x11_5_ + x15_5_ <= 1
 R935: x11_6_ + x15_6_ <= 1
 R936: x11_7_ + x15_7_ <= 1
 R937: x11_8_ + x15_8_ <= 1
 R938: x11_9_ + x15_9_ <= 1
 R939: x12_0_ + x15_0_ <= 1
 R940: x12_1_ + x15_1_ <= 1
 R941: x12_2_ + x15_2_ <= 1
 R942: x12_3_ + x15_3_ <= 1
 R943: x12_4_ + x15_4_ <= 1
 R944: x12_5_ + x15_5_ <= 1
 R945: x12_6_ + x15_6_ <= 1
 R946: x12_7_ + x15_7_ <= 1
 R947: x12_8_ + x15_8_ <= 1
 R948: x12_9_ + x15_9_ <= 1
 R949: x14_0_ + x16_0_ <= 1
 R950: x14_1_ + x16_1_ <= 1
 R951: x14_2_ + x16_2_ <= 1
 R952: x14_3_ + x16_3_ <= 1
 R953: x14_4_ + x16_4_ <= 1
 R954: x14_5_ + x16_5_ <= 1
 R955: x14_6_ + x16_6_ <= 1
 R956: x14_7_ + x16_7_ <= 1
 R957: x14_8_ + x16_8_ <= 1
 R958: x14_9_ + x16_9_ <= 1
 R959: x16_0_ + x19_0_ <= 1
 R960: x16_1_ + x19_1_ <= 1
 R961: x16_2_ + x19_2_ <= 1
 R962: x16_3_ + x19_3_ <= 1
 R963: x16_4_ + x19_4_ <= 1
 R964: x16_5_ + x19_5_ <= 1
 R965: x16_6_ + x19_6_ <= 1
 R966: x16_7_ + x19_7_ <= 1
 R967: x16_8_ + x19_8_ <= 1
 R968: x16_9_ + x19_9_ <= 1
 R969: x4_6_ + x17_6_ <= 1
 R970: x4_7_ + x17_7_ <= 1
 R971: x4_8_ + x17_8_ <= 1
 R972: x4_9_ + x17_9_ <= 1
 R973: x5_6_ + x17_6_ <= 1
 R974: x5_7_ + x17_7_ <= 1
 R975: x5_8_ + x17_8_ <= 1
 R976: x5_9_ + x17_9_ <= 1
 R977: x7_6_ + x17_6_ <= 1
 R978: x7_7_ + x17_7_ <= 1
 R979: x7_8_ + x17_8_ <= 1
 R980: x7_9_ + x17_9_ <= 1
 R981: x8_6_ + x17_6_ <= 1
 R982: x8_7_ + x17_7_ <= 1
 R983: x8_8_ + x17_8_ <= 1
 R984: x8_9_ + x17_9_ <= 1
 R985: x9_6_ + x17_6_ <= 1
 R986: x9_7_ + x17_7_ <= 1
 R987: x9_8_ + x17_8_ <= 1
 R988: x9_9_ + x17_9_ <= 1
 R989: x15_6_ + x17_6_ <= 1
 R990: x15_7_ + x17_7_ <= 1
 R991: x15_8_ + x17_8_ <= 1
 R992: x15_9_ + x17_9_ <= 1
 R993: x4_0_ + x18_0_ <= 1
 R994: x4_1_ + x18_1_ <= 1
 R995: x4_2_ + x18_2_ <= 1
 R996: x4_3_ + x18_3_ <= 1
 R997: x4_4_ + x18_4_ <= 1
 R998: x4_5_ + x18_5_ <= 1
 R999: x4_6_ + x18_6_ <= 1
 R1000: x4_7_ + x18_7_ <= 1
 R1001: x4_8_ + x18_8_ <= 1
 R1002: x4_9_ + x18_9_ <= 1
 R1003: x6_0_ + x18_0_ <= 1
 R1004: x6_1_ + x18_1_ <= 1
 R1005: x6_2_ + x18_2_ <= 1
 R1006: x6_3_ + x18_3_ <= 1
 R1007: x6_4_ + x18_4_ <= 1
 R1008: x6_5_ + x18_5_ <= 1
 R1009: x6_6_ + x18_6_ <= 1
 R1010: x6_7_ + x18_7_ <= 1
 R1011: x6_8_ + x18_8_ <= 1
 R1012: x6_9_ + x18_9_ <= 1
 R1013: x7_0_ + x18_0_ <= 1
 R1014: x7_1_ + x18_1_ <= 1
 R1015: x7_2_ + x18_2_ <= 1
 R1016: x7_3_ + x18_3_ <= 1
 R1017: x7_4_ + x18_4_ <= 1
 R1018: x7_5_ + x18_5_ <= 1
 R1019: x7_6_ + x18_6_ <= 1
 R1020: x7_7_ + x18_7_ <= 1
 R1021: x7_8_ + x18_8_ <= 1
 R1022: x7_9_ + x18_9_ <= 1
 R1023: x8_0_ + x18_0_ <= 1
 R1024: x8_1_ + x18_1_ <= 1
 R1025: x8_2_ + x18_2_ <= 1
 R1026: x8_3_ + x18_3_ <= 1
 R1027: x8_4_ + x18_4_ <= 1
 R1028: x8_5_ + x18_5_ <= 1
 R1029: x8_6_ + x18_6_ <= 1
 R1030: x8_7_ + x18_7_ <= 1
 R1031: x8_8_ + x18_8_ <= 1
 R1032: x8_9_ + x18_9_ <= 1
 R1033: x9_0_ + x18_0_ <= 1
 R1034: x9_1_ + x18_1_ <= 1
 R1035: x9_2_ + x18_2_ <= 1
 R1036: x9_3_ + x18_3_ <= 1
 R1037: x9_4_ + x18_4_ <= 1
 R1038: x9_5_ + x18_5_ <= 1
 R1039: x9_6_ + x18_6_ <= 1
 R1040: x9_7_ + x18_7_ <= 1
 R1041: x9_8_ + x18_8_ <= 1
 R1042: x9_9_ + x18_9_ <= 1
 R1043: x11_0_ + x18_0_ <= 1
 R1044: x11_1_ + x18_1_ <= 1
 R1045: x11_2_ + x18_2_ <= 1
 R1046: x11_3_ + x18_3_ <= 1
 R1047: x11_4_ + x18_4_ <= 1
 R1048: x11_5_ + x18_5_ <= 1
 R1049: x11_6_ + x18_6_ <= 1
 R1050: x11_7_ + x18_7_ <= 1
 R1051: x11_8_ + x18_8_ <= 1
 R1052: x11_9_ + x18_9_ <= 1
 R1053: x12_0_ + x18_0_ <= 1
 R1054: x12_1_ + x18_1_ <= 1
 R1055: x12_2_ + x18_2_ <= 1
 R1056: x12_3_ + x18_3_ <= 1
 R1057: x12_4_ + x18_4_ <= 1
 R1058: x12_5_ + x18_5_ <= 1
 R1059: x12_6_ + x18_6_ <= 1
 R1060: x12_7_ + x18_7_ <= 1
 R1061: x12_8_ + x18_8_ <= 1
 R1062: x12_9_ + x18_9_ <= 1
 R1063: x0_0_ + x19_0_ <= 1
 R1064: x0_1_ + x19_1_ <= 1
 R1065: x0_2_ + x19_2_ <= 1
 R1066: x0_3_ + x19_3_ <= 1
 R1067: x0_4_ + x19_4_ <= 1
 R1068: x0_5_ + x19_5_ <= 1
 R1069: x0_6_ + x19_6_ <= 1
 R1070: x0_7_ + x19_7_ <= 1
 R1071: x0_8_ + x19_8_ <= 1
 R1072: x0_9_ + x19_9_ <= 1
 R1073: x14_0_ + x19_0_ <= 1
 R1074: x14_1_ + x19_1_ <= 1
 R1075: x14_2_ + x19_2_ <= 1
 R1076: x14_3_ + x19_3_ <= 1
 R1077: x14_4_ + x19_4_ <= 1
 R1078: x14_5_ + x19_5_ <= 1
 R1079: x14_6_ + x19_6_ <= 1
 R1080: x14_7_ + x19_7_ <= 1
 R1081: x14_8_ + x19_8_ <= 1
 R1082: x14_9_ + x19_9_ <= 1
 R1083: x16_0_ + x19_0_ <= 1
 R1084: x16_1_ + x19_1_ <= 1
 R1085: x16_2_ + x19_2_ <= 1
 R1086: x16_3_ + x19_3_ <= 1
 R1087: x16_4_ + x19_4_ <= 1
 R1088: x16_5_ + x19_5_ <= 1
 R1089: x16_6_ + x19_6_ <= 1
 R1090: x16_7_ + x19_7_ <= 1
 R1091: x16_8_ + x19_8_ <= 1
 R1092: x16_9_ + x19_9_ <= 1
 R1093: <= 1
 R1094: 9 x0_0_ + 9 x0_1_ + 9 x0_2_ + 9 x0_3_ + 9 x0_4_ + 9 x0_5_ + 7 x0_6_
   + 2 x0_7_ + 2 x0_8_ + 2 x0_9_ + 72 x1_7_ + 72 x1_8_ + 72 x1_9_
   + 68 x2_7_ + 68 x2_8_ + 68 x2_9_ + 9 x3_0_ + 9 x3_1_ + 9 x3_2_ + 9 x3_3_
   + 9 x3_4_ + 9 x3_5_ + 7 x3_6_ + 2 x3_7_ + 2 x3_8_ + 2 x3_9_ + 72 x4_0_
   + 72 x4_1_ + 72 x4_2_ + 72 x4_3_ + 72 x4_4_ + 72 x4_5_ + 56 x4_6_
   + 16 x4_7_ + 16 x4_8_ + 16 x4_9_ + 18 x5_0_ + 18 x5_1_ + 18 x5_2_
   + 18 x5_3_ + 18 x5_4_ + 18 x5_5_ + 14 x5_6_ + 4 x5_7_ + 4 x5_8_
   + 4 x5_9_ + 36 x6_0_ + 36 x6_1_ + 36 x6_2_ + 36 x6_3_ + 36 x6_4_
   + 36 x6_5_ + 28 x6_6_ + 8 x6_7_ + 8 x6_8_ + 8 x6_9_ + 45 x7_0_
   + 45 x7_1_ + 45 x7_2_ + 45 x7_3_ + 45 x7_4_ + 45 x7_5_ + 35 x7_6_
   + 10 x7_7_ + 10 x7_8_ + 10 x7_9_ + 54 x8_0_ + 54 x8_1_ + 54 x8_2_
   + 54 x8_3_ + 54 x8_4_ + 54 x8_5_ + 42 x8_6_ + 12 x8_7_ + 12 x8_8_
   + 12 x8_9_ + 36 x9_0_ + 36 x9_1_ + 36 x9_2_ + 36 x9_3_ + 36 x9_4_
   + 36 x9_5_ + 28 x9_6_ + 8 x9_7_ + 8 x9_8_ + 8 x9_9_ + 9 x10_0_
   + 9 x10_1_ + 9 x10_2_ + 9 x10_3_ + 9 x10_4_ + 9 x10_5_ + 7 x10_6_
   + 2 x10_7_ + 2 x10_8_ + 2 x10_9_ + 36 x11_0_ + 36 x11_1_ + 36 x11_2_
   + 36 x11_3_ + 36 x11_4_ + 36 x11_5_ + 28 x11_6_ + 8 x11_7_ + 8 x11_8_
   + 8 x11_9_ + 27 x12_0_ + 27 x12_1_ + 27 x12_2_ + 27 x12_3_ + 27 x12_4_
   + 27 x12_5_ + 21 x12_6_ + 6 x12_7_ + 6 x12_8_ + 6 x12_9_ + 17 x13_7_
   + 17 x13_8_ + 17 x13_9_ + 36 x14_0_ + 36 x14_1_ + 36 x14_2_ + 36 x14_3_
   + 36 x14_4_ + 36 x14_5_ + 28 x14_6_ + 8 x14_7_ + 8 x14_8_ + 8 x14_9_
   + 27 x15_0_ + 27 x15_1_ + 27 x15_2_ + 27 x15_3_ + 27 x15_4_ + 27 x15_5_
   + 21 x15_6_ + 6 x15_7_ + 6 x15_8_ + 6 x15_9_ + 9 x16_0_ + 9 x16_1_
   + 9 x16_2_ + 9 x16_3_ + 9 x16_4_ + 9 x16_5_ + 7 x16_6_ + 2 x16_7_
   + 2 x16_8_ + 2 x16_9_ + 144 x17_7_ + 144 x17_8_ + 144 x17_9_ + 9 x18_0_
   + 9 x18_1_ + 9 x18_2_ + 9 x18_3_ + 9 x18_4_ + 9 x18_5_ + 7 x18_6_
   + 2 x18_7_ + 2 x18_8_ + 2 x18_9_ + 27 x19_0_ + 27 x19_1_ + 27 x19_2_
   + 27 x19_3_ + 27 x19_4_ + 27 x19_5_ + 21 x19_6_ + 6 x19_7_ + 6 x19_8_
   + 6 x19_9_ >= 747
 R1095: x0_0_ + x1_7_ + x2_7_ + x3_4_ + x4_3_ + x5_1_ + x6_2_ + x7_5_
   + x8_4_ + x9_0_ + x10_3_ + x11_1_ + x12_6_ + x13_9_ + x14_4_ + x15_2_
   + x16_0_ + x17_9_ + x18_8_ + x19_3_ <= 19
Bounds
Binaries
 x0_0_ x0_1_ x0_2_ x0_3_ x0_4_ x0_5_ x0_6_ x0_7_ x0_8_ x0_9_ x0_n_ x1_6_
 x1_7_ x1_8_ x1_9_ x1_n_ x2_7_ x2_8_ x2_9_ x2_n_ x3_0_ x3_1_ x3_2_ x3_3_
 x3_4_ x3_5_ x3_6_ x3_7_ x3_8_ x3_9_ x3_n_ x4_0_ x4_1_ x4_2_ x4_3_ x4_4_
 x4_5_ x4_6_ x4_7_ x4_8_ x4_9_ x4_n_ x5_0_ x5_1_ x5_2_ x5_3_ x5_4_ x5_5_
 x5_6_ x5_7_ x5_8_ x5_9_ x5_n_ x6_0_ x6_1_ x6_2_ x6_3_ x6_4_ x6_5_ x6_6_
 x6_7_ x6_8_ x6_9_ x6_n_ x7_0_ x7_1_ x7_2_ x7_3_ x7_4_ x7_5_ x7_6_ x7_7_
 x7_8_ x7_9_ x7_n_ x8_0_ x8_1_ x8_2_ x8_3_ x8_4_ x8_5_ x8_6_ x8_7_ x8_8_
 x8_9_ x8_n_ x9_0_ x9_1_ x9_2_ x9_3_ x9_4_ x9_5_ x9_6_ x9_7_ x9_8_ x9_9_
 x9_n_ x10_0_ x10_1_ x10_2_ x10_3_ x10_4_ x10_5_ x10_6_ x10_7_ x10_8_
 x10_9_ x10_n_ x11_0_ x11_1_ x11_2_ x11_3_ x11_4_ x11_5_ x11_6_ x11_7_
 x11_8_ x11_9_ x11_n_ x12_0_ x12_1_ x12_2_ x12_3_ x12_4_ x12_5_ x12_6_
 x12_7_ x12_8_ x12_9_ x12_n_ x13_7_ x13_8_ x13_9_ x13_n_ x14_0_ x14_1_
 x14_2_ x14_3_ x14_4_ x14_5_ x14_6_ x14_7_ x14_8_ x14_9_ x14_n_ x15_0_
 x15_1_ x15_2_ x15_3_ x15_4_ x15_5_ x15_6_ x15_7_ x15_8_ x15_9_ x15_n_
 x16_0_ x16_1_ x16_2_ x16_3_ x16_4_ x16_5_ x16_6_ x16_7_ x16_8_ x16_9_
 x16_n_ x17_6_ x17_7_ x17_8_ x17_9_ x17_n_ x18_0_ x18_1_ x18_2_ x18_3_
 x18_4_ x18_5_ x18_6_ x18_7_ x18_8_ x18_9_ x18_n_ x19_0_ x19_1_ x19_2_
 x19_3_ x19_4_ x19_5_ x19_6_ x19_7_ x19_8_ x19_9_ x19_n_
End
